
%FILE DATA:	Soccer Computational Problem for MiniZinc Models	%
%AUTHOR:	Jack Wall	%
%CONTACT:  	116397063@umail.ucc.ie			%
%LAST UPDATE:	03/12/2020, 11:03:48						%
%DESCRIPTION: 	140 games played with 42 games left				%


n=14; %number of teams

%Games to play
games=[|8,11|7,1|8,2|2,11|6,1|4,7|3,8|14,11|5,14|6,13|3,13|3,7|1,14|1,13|11,3|14,12|2,10|12,11|11,1|9,14|9,4|14,13|1,12|5,13|8,14|7,4|14,10|11,10|7,3|9,12|13,2|13,11|6,4|2,6|6,12|4,11|3,2|4,1|5,3|11,4|5,2|4,2|];

%Initial points
iPoints=[28,26,36,23,33,27,27,30,22,24,23,27,25,29];

%POSITION CONSTRAINTS
% [|teamID, operator, position|...]
% operators index:
%  1 for =  operator
%  2 for >  operator
%  3 for >= operator
%  4 for <  operator
%  5 for <= operator
positionConstraints=[|3,3,1|14,5,2|];